32      10      
18      16      19      19      13      19      16      19      15      19      
0       0       0       0       0       0       0       0       0       0       0       1       2       
9       8       5       0       1       0       0       6       6       9       0       1       3       
4       7       2       0       7       3       0       0       7       0       1       2       4       8       
5       0       0       4       2       1       6       0       3       0       1       1       5       
6       5       8       0       6       1       1       0       1       0       0       2       6       7       
4       1       1       0       9       7       7       7       0       0       0       2       9       12      
5       1       0       0       0       1       0       7       10      1       7       1       10      
10      0       1       4       4       0       7       0       0       1       4       1       9       
4       0       0       5       0       4       7       1       1       3       0       2       11      13      
3       1       1       1       7       0       1       0       0       6       0       2       11      13      
4       0       0       2       0       2       11      3       7       1       0       3       14      15      17      
7       1       3       0       1       0       3       0       7       3       0       3       14      15      17      
5       0       0       1       0       1       5       2       1       0       7       1       14      
2       0       11      4       0       9       1       2       0       0       1       3       16      18      24      
5       1       1       9       0       1       7       1       0       0       0       2       16      24      
3       0       4       3       8       0       0       0       1       15      4       3       19      20      22      
10      16      0       8       0       0       3       10      6       0       7       3       19      20      23      
5       0       0       9       0       5       1       8       0       1       5       3       20      22      23      
10      3       1       11      0       0       1       5       0       0       2       1       21      
5       1       6       1       0       1       0       6       0       1       0       1       25      
8       3       1       7       6       0       0       2       0       0       7       1       25      
5       7       0       0       0       6       0       5       6       9       9       1       25      
5       1       1       0       3       0       0       0       1       1       1       1       25      
3       0       9       1       0       0       0       2       2       1       8       1       25      
1       0       4       0       6       1       0       1       0       1       3       2       26      27      
1       11      7       1       10      0       0       0       0       1       12      2       28      29      
4       0       6       0       1       1       14      1       0       7       0       1       28      
2       7       0       0       1       1       0       3       17      1       0       2       30      31      
9       0       0       14      11      5       3       0       1       0       6       1       30      
6       6       0       1       2       9       5       0       1       0       0       1       32      
8       1       0       0       1       0       3       0       8       6       1       1       32      
0       0       0       0       0       0       0       0       0       0       0       0       
